
Gurobi 6.5.2 (win64) logging started 07/22/16 21:55:08


Gurobi 6.5.2 (win64) logging started 07/22/16 21:55:08

Optimize a model with 2497 rows, 320 columns and 5232 nonzeros
Coefficient statistics:
  Matrix range    [1e+00, 1e+00]
  Objective range [2e+00, 4e+02]
  Bounds range    [1e+00, 1e+00]
  RHS range       [1e+00, 1e+00]
Found heuristic solution: objective -0
Presolve removed 2353 rows and 40 columns
Presolve time: 0.00s
Presolved: 144 rows, 280 columns, 952 nonzeros
Variable types: 0 continuous, 280 integer (280 binary)

Root relaxation: objective 2.051000e+03, 129 iterations, 0.00 seconds

    Nodes    |    Current Node    |     Objective Bounds      |     Work
 Expl Unexpl |  Obj  Depth IntInf | Incumbent    BestBd   Gap | It/Node Time

*    0     0               0    2051.0000000 2051.00000  0.00%     -    0s

Explored 0 nodes (129 simplex iterations) in 0.01 seconds
Thread count was 8 (of 8 available processors)

Optimal solution found (tolerance 1.00e-04)
Best objective 2.051000000000e+03, best bound 2.051000000000e+03, gap 0.0%

Wrote requested result file 'H1\instance25\\Results25.lp'

